30708
1 1 1 0 1 0 0 1 1 1 1 0 1 0 0 1 0 0 0 0 0 0 1 0 1 1 0 1 1 1 
27 29 22 27 2 7 2 27 27 28 4 28 10 1 28 7 1 10 15 22 27 22 15 24 10 7 24 9 29 15 28 9 4 22 27 29 8 8 24 15 7 9 12 29 8 4 1 24 28 10 24 22 0 24 8 12 25 9 7 7 29 0 7 8 8 22 0 9 12 25 7 12 28 9 22 22 9 15 8 24 10 1 9 25 4 29 29 2 27 25 28 29 25 25 0 1 28 12 0 28 28 15 25 7 4 0 4 24 22 1 9 4 24 12 12 8 27 7 28 8 9 22 28 4 9 22 2 12 9 0 28 24 25 10 22 8 1 1 28 29 12 27 12 25 25 1 24 15 27 25 24 0 1 0 8 7 2 15 1 1 1 27 10 2 10 27 22 4 1 15 15 8 29 9 4 2 0 10 29 10 1 15 2 29 25 8 28 10 28 2 2 15 29 4 7 12 7 15 10 29 